40	100	100	100
22	9	5
33	8	21
23	34	6
14	3	19
17	11	25
11	20	18
27	15	24
31	11	32
9	34	3
27	1	27
22	9	26
9	21	26
5	6	34
27	10	3
34	31	6
13	4	3
24	7	28
27	14	7
28	8	24
22	8	28
12	13	18
24	26	14
19	1	8
2	28	6
5	13	11
5	7	18
29	24	17
26	14	10
3	28	5
1	7	11
13	5	13
21	5	31
6	2	13
10	28	7
31	24	6
29	17	24
25	12	21
7	10	34
17	16	3
27	10	3
